-171.0 10.0 0.0 10.0 4.0 2.0 4.0 10.0 3.0 6.0 1.0 7.0 1.0 7.0 10.0 7.0 1.0 2.0 2.0 0.0 0.0 5.0 2.0 3.0 5.0 1.0 9.0 0.0 5.0 0.0 10.0 5.0 8.0 4.0 7.0 10.0 10.0 
10.0 -171.0 4.0 7.0 10.0 3.0 7.0 4.0 9.0 2.0 3.0 6.0 2.0 5.0 1.0 6.0 5.0 7.0 7.0 1.0 4.0 10.0 4.0 6.0 5.0 4.0 5.0 4.0 10.0 6.0 4.0 6.0 4.0 0.0 0.0 0.0 0.0 
0.0 4.0 -163.0 7.0 3.0 0.0 0.0 7.0 2.0 4.0 10.0 8.0 4.0 6.0 2.0 4.0 6.0 7.0 1.0 10.0 10.0 0.0 8.0 1.0 4.0 10.0 9.0 1.0 4.0 0.0 2.0 3.0 3.0 5.0 5.0 4.0 9.0 
10.0 7.0 7.0 -218.0 9.0 2.0 5.0 5.0 1.0 6.0 10.0 10.0 8.0 0.0 4.0 7.0 4.0 10.0 8.0 9.0 10.0 7.0 9.0 6.0 8.0 5.0 7.0 2.0 1.0 3.0 10.0 4.0 4.0 10.0 7.0 1.0 2.0 
4.0 10.0 3.0 9.0 -229.0 5.0 6.0 2.0 0.0 0.0 7.0 9.0 4.0 9.0 10.0 7.0 8.0 3.0 8.0 7.0 7.0 2.0 10.0 8.0 5.0 10.0 10.0 5.0 6.0 6.0 4.0 5.0 7.0 9.0 7.0 9.0 8.0 
2.0 3.0 0.0 2.0 5.0 -196.0 3.0 7.0 2.0 10.0 8.0 1.0 3.0 7.0 4.0 9.0 7.0 8.0 9.0 1.0 4.0 1.0 7.0 10.0 1.0 2.0 8.0 9.0 8.0 8.0 5.0 5.0 7.0 8.0 8.0 5.0 9.0 
4.0 7.0 0.0 5.0 6.0 3.0 -195.0 9.0 7.0 5.0 4.0 6.0 6.0 8.0 1.0 10.0 5.0 6.0 4.0 6.0 5.0 8.0 5.0 5.0 7.0 9.0 10.0 8.0 9.0 2.0 1.0 3.0 2.0 3.0 1.0 10.0 5.0 
10.0 4.0 7.0 5.0 2.0 7.0 9.0 -170.0 8.0 8.0 7.0 4.0 3.0 0.0 9.0 5.0 7.0 0.0 3.0 5.0 1.0 2.0 10.0 6.0 9.0 0.0 5.0 9.0 0.0 7.0 0.0 5.0 2.0 2.0 1.0 7.0 1.0 
3.0 9.0 2.0 1.0 0.0 2.0 7.0 8.0 -184.0 10.0 0.0 3.0 4.0 9.0 7.0 10.0 9.0 6.0 7.0 5.0 2.0 7.0 4.0 1.0 10.0 1.0 5.0 9.0 5.0 2.0 5.0 1.0 6.0 7.0 3.0 4.0 10.0 
6.0 2.0 4.0 6.0 0.0 10.0 5.0 8.0 10.0 -205.0 0.0 6.0 10.0 8.0 7.0 9.0 8.0 0.0 7.0 10.0 6.0 3.0 9.0 0.0 4.0 2.0 3.0 6.0 3.0 5.0 10.0 8.0 6.0 6.0 3.0 8.0 7.0 
1.0 3.0 10.0 10.0 7.0 8.0 4.0 7.0 0.0 0.0 -161.0 6.0 8.0 1.0 3.0 0.0 0.0 0.0 6.0 3.0 8.0 4.0 8.0 9.0 8.0 2.0 0.0 8.0 1.0 10.0 2.0 8.0 2.0 3.0 5.0 4.0 2.0 
7.0 6.0 8.0 10.0 9.0 1.0 6.0 4.0 3.0 6.0 6.0 -215.0 6.0 7.0 0.0 10.0 0.0 9.0 5.0 8.0 6.0 9.0 8.0 7.0 3.0 7.0 1.0 6.0 0.0 10.0 8.0 7.0 0.0 10.0 5.0 9.0 8.0 
1.0 2.0 4.0 8.0 4.0 3.0 6.0 3.0 4.0 10.0 8.0 6.0 -164.0 0.0 1.0 3.0 1.0 1.0 7.0 2.0 6.0 6.0 0.0 1.0 4.0 2.0 8.0 7.0 10.0 8.0 7.0 7.0 8.0 1.0 4.0 5.0 6.0 
7.0 5.0 6.0 0.0 9.0 7.0 8.0 0.0 9.0 8.0 1.0 7.0 0.0 -194.0 9.0 3.0 3.0 10.0 6.0 7.0 3.0 1.0 8.0 8.0 7.0 7.0 6.0 5.0 6.0 3.0 10.0 0.0 5.0 2.0 7.0 10.0 1.0 
10.0 1.0 2.0 4.0 10.0 4.0 1.0 9.0 7.0 7.0 3.0 0.0 1.0 9.0 -196.0 10.0 10.0 5.0 6.0 3.0 10.0 8.0 6.0 2.0 2.0 4.0 7.0 6.0 0.0 3.0 8.0 10.0 6.0 9.0 2.0 3.0 8.0 
7.0 6.0 4.0 7.0 7.0 9.0 10.0 5.0 10.0 9.0 0.0 10.0 3.0 3.0 10.0 -225.0 9.0 5.0 2.0 10.0 3.0 8.0 2.0 10.0 9.0 3.0 7.0 9.0 1.0 9.0 7.0 4.0 10.0 2.0 7.0 6.0 2.0 
1.0 5.0 6.0 4.0 8.0 7.0 5.0 7.0 9.0 8.0 0.0 0.0 1.0 3.0 10.0 9.0 -187.0 6.0 4.0 5.0 9.0 9.0 0.0 10.0 7.0 3.0 1.0 4.0 5.0 7.0 5.0 9.0 4.0 9.0 1.0 3.0 3.0 
2.0 7.0 7.0 10.0 3.0 8.0 6.0 0.0 6.0 0.0 0.0 9.0 1.0 10.0 5.0 5.0 6.0 -178.0 10.0 10.0 9.0 6.0 3.0 1.0 1.0 7.0 1.0 8.0 2.0 5.0 10.0 1.0 2.0 1.0 10.0 0.0 6.0 
2.0 7.0 1.0 8.0 8.0 9.0 4.0 3.0 7.0 7.0 6.0 5.0 7.0 6.0 6.0 2.0 4.0 10.0 -195.0 1.0 8.0 8.0 7.0 6.0 1.0 2.0 1.0 6.0 3.0 6.0 4.0 9.0 0.0 9.0 10.0 7.0 5.0 
0.0 1.0 10.0 9.0 7.0 1.0 6.0 5.0 5.0 10.0 3.0 8.0 2.0 7.0 3.0 10.0 5.0 10.0 1.0 -187.0 8.0 7.0 10.0 7.0 8.0 5.0 1.0 1.0 1.0 0.0 4.0 3.0 8.0 7.0 2.0 3.0 9.0 
0.0 4.0 10.0 10.0 7.0 4.0 5.0 1.0 2.0 6.0 8.0 6.0 6.0 3.0 10.0 3.0 9.0 9.0 8.0 8.0 -197.0 7.0 3.0 0.0 5.0 6.0 1.0 7.0 7.0 5.0 10.0 10.0 2.0 6.0 7.0 0.0 2.0 
5.0 10.0 0.0 7.0 2.0 1.0 8.0 2.0 7.0 3.0 4.0 9.0 6.0 1.0 8.0 8.0 9.0 6.0 8.0 7.0 7.0 -186.0 1.0 7.0 2.0 9.0 0.0 8.0 6.0 0.0 5.0 4.0 7.0 7.0 2.0 6.0 4.0 
2.0 4.0 8.0 9.0 10.0 7.0 5.0 10.0 4.0 9.0 8.0 8.0 0.0 8.0 6.0 2.0 0.0 3.0 7.0 10.0 3.0 1.0 -202.0 1.0 6.0 8.0 7.0 5.0 8.0 5.0 6.0 2.0 7.0 4.0 4.0 5.0 10.0 
3.0 6.0 1.0 6.0 8.0 10.0 5.0 6.0 1.0 0.0 9.0 7.0 1.0 8.0 2.0 10.0 10.0 1.0 6.0 7.0 0.0 7.0 1.0 -184.0 7.0 4.0 8.0 2.0 7.0 4.0 7.0 1.0 5.0 3.0 10.0 1.0 10.0 
5.0 5.0 4.0 8.0 5.0 1.0 7.0 9.0 10.0 4.0 8.0 3.0 4.0 7.0 2.0 9.0 7.0 1.0 1.0 8.0 5.0 2.0 6.0 7.0 -202.0 0.0 7.0 10.0 8.0 3.0 2.0 7.0 6.0 9.0 7.0 7.0 8.0 
1.0 4.0 10.0 5.0 10.0 2.0 9.0 0.0 1.0 2.0 2.0 7.0 2.0 7.0 4.0 3.0 3.0 7.0 2.0 5.0 6.0 9.0 8.0 4.0 0.0 -177.0 1.0 2.0 7.0 2.0 8.0 10.0 5.0 9.0 6.0 6.0 8.0 
9.0 5.0 9.0 7.0 10.0 8.0 10.0 5.0 5.0 3.0 0.0 1.0 8.0 6.0 7.0 7.0 1.0 1.0 1.0 1.0 1.0 0.0 7.0 8.0 7.0 1.0 -156.0 0.0 3.0 2.0 4.0 9.0 1.0 5.0 0.0 0.0 4.0 
0.0 4.0 1.0 2.0 5.0 9.0 8.0 9.0 9.0 6.0 8.0 6.0 7.0 5.0 6.0 9.0 4.0 8.0 6.0 1.0 7.0 8.0 5.0 2.0 10.0 2.0 0.0 -186.0 8.0 9.0 4.0 2.0 4.0 1.0 7.0 0.0 4.0 
5.0 10.0 4.0 1.0 6.0 8.0 9.0 0.0 5.0 3.0 1.0 0.0 10.0 6.0 0.0 1.0 5.0 2.0 3.0 1.0 7.0 6.0 8.0 7.0 8.0 7.0 3.0 8.0 -174.0 3.0 3.0 0.0 3.0 9.0 10.0 5.0 7.0 
0.0 6.0 0.0 3.0 6.0 8.0 2.0 7.0 2.0 5.0 10.0 10.0 8.0 3.0 3.0 9.0 7.0 5.0 6.0 0.0 5.0 0.0 5.0 4.0 3.0 2.0 2.0 9.0 3.0 -176.0 7.0 3.0 4.0 7.0 7.0 5.0 10.0 
10.0 4.0 2.0 10.0 4.0 5.0 1.0 0.0 5.0 10.0 2.0 8.0 7.0 10.0 8.0 7.0 5.0 10.0 4.0 4.0 10.0 5.0 6.0 7.0 2.0 8.0 4.0 4.0 3.0 7.0 -190.0 4.0 3.0 1.0 1.0 2.0 7.0 
5.0 6.0 3.0 4.0 5.0 5.0 3.0 5.0 1.0 8.0 8.0 7.0 7.0 0.0 10.0 4.0 9.0 1.0 9.0 3.0 10.0 4.0 2.0 1.0 7.0 10.0 9.0 2.0 0.0 3.0 4.0 -184.0 1.0 1.0 8.0 10.0 9.0 
8.0 4.0 3.0 4.0 7.0 7.0 2.0 2.0 6.0 6.0 2.0 0.0 8.0 5.0 6.0 10.0 4.0 2.0 0.0 8.0 2.0 7.0 7.0 5.0 6.0 5.0 1.0 4.0 3.0 4.0 3.0 1.0 -169.0 7.0 6.0 6.0 8.0 
4.0 0.0 5.0 10.0 9.0 8.0 3.0 2.0 7.0 6.0 3.0 10.0 1.0 2.0 9.0 2.0 9.0 1.0 9.0 7.0 6.0 7.0 4.0 3.0 9.0 9.0 5.0 1.0 9.0 7.0 1.0 1.0 7.0 -190.0 2.0 7.0 5.0 
7.0 0.0 5.0 7.0 7.0 8.0 1.0 1.0 3.0 3.0 5.0 5.0 4.0 7.0 2.0 7.0 1.0 10.0 10.0 2.0 7.0 2.0 4.0 10.0 7.0 6.0 0.0 7.0 10.0 7.0 1.0 8.0 6.0 2.0 -187.0 10.0 5.0 
10.0 0.0 4.0 1.0 9.0 5.0 10.0 7.0 4.0 8.0 4.0 9.0 5.0 10.0 3.0 6.0 3.0 0.0 7.0 3.0 0.0 6.0 5.0 1.0 7.0 6.0 0.0 0.0 5.0 5.0 2.0 10.0 6.0 7.0 10.0 -188.0 10.0 
10.0 0.0 9.0 2.0 8.0 9.0 5.0 1.0 10.0 7.0 2.0 8.0 6.0 1.0 8.0 2.0 3.0 6.0 5.0 9.0 2.0 4.0 10.0 10.0 8.0 8.0 4.0 4.0 7.0 10.0 7.0 9.0 8.0 5.0 5.0 10.0 -222.0 

